#<CBLIB:AUTOGEN>
# Contributor: Henrik A. Friberg
# Minimum Steiner tree problem.
# 
# @phdthesis{Drewes2009,
# author = {Drewes, Sarah},
# number = {April 2009},
# pages = {1--203},
# school = {Technical University Darmstadt},
# title = {{Mixed Integer Second Order Cone Programming}},
# year = {2009}
# }
#</CBLIB:AUTOGEN>
VER
1

OBJSENSE
MIN

VAR
67 11
L+ 4
Q 3
Q 3
Q 3
Q 3
Q 3
Q 3
Q 3
Q 3
Q 3
L+ 36

INT
9
40
41
42
43
44
45
46
47
48

CON
108 2
L= 50
L- 58

OBJACOORD
9
31 1
32 1
33 1
34 1
35 1
36 1
37 1
38 1
39 1

ACOORD
128
9 0 1
13 0 1
17 0 1
21 0 1
25 0 -1
10 1 1
14 1 1
18 1 1
22 1 1
26 1 -1
11 2 1
15 2 1
19 2 1
23 2 1
25 2 1
12 3 1
16 3 1
20 3 1
24 3 1
26 3 1
0 4 1
9 5 1
10 6 1
1 7 1
11 8 1
12 9 1
2 10 1
13 11 1
14 12 1
3 13 1
15 14 1
16 15 1
4 16 1
17 17 1
18 18 1
5 19 1
19 20 1
20 21 1
6 22 1
21 23 1
22 24 1
7 25 1
23 26 1
24 27 1
8 28 1
25 29 1
26 30 1
0 31 -1
41 31 1
1 32 -1
42 32 1
2 33 -1
43 33 1
3 34 -1
44 34 1
4 35 -1
45 35 1
5 36 -1
46 36 1
6 37 -1
47 37 1
7 38 -1
48 38 1
8 39 -1
49 39 1
0 40 0.493351
27 40 1
32 40 1
41 40 -0.493351
1 41 0.493351
27 41 1
33 41 1
42 41 -0.493351
2 42 0.493351
28 42 1
34 42 1
43 42 -0.493351
3 43 0.493351
28 43 1
35 43 1
44 43 -0.493351
4 44 0.493351
29 44 1
36 44 1
45 44 -0.493351
5 45 0.493351
29 45 1
37 45 1
46 45 -0.493351
6 46 0.493351
30 46 1
38 46 1
47 46 -0.493351
7 47 0.493351
30 47 1
39 47 1
48 47 -0.493351
8 48 0.493351
31 48 1
40 48 1
49 48 -0.493351
32 49 1
33 50 1
34 51 1
35 52 1
36 53 1
37 54 1
38 55 1
39 56 1
40 57 1
41 58 1
42 59 1
43 60 1
44 61 1
45 62 1
46 63 1
47 64 1
48 65 1
49 66 1
99 40 1
100 41 1
101 42 1
102 43 1
103 44 1
104 45 1
105 46 1
106 47 1
107 48 1

BCOORD
48
0 -0.493351
1 -0.493351
2 -0.493351
3 -0.493351
4 -0.493351
5 -0.493351
6 -0.493351
7 -0.493351
8 -0.493351
9 -0.818389
10 -0.492977
11 -0.818389
12 -0.492977
13 -0.406
14 -0.646402
15 -0.406
16 -0.646402
17 -0.667312
18 -0.300798
19 -0.667312
20 -0.300798
21 -0.328386
22 -0.435608
23 -0.328386
24 -0.435608
27 -1
28 -1
29 -1
30 -1
31 -1
32 -1
33 -1
34 -1
35 -1
36 -1
37 -1
38 -1
39 -1
40 -1
99 -1
100 -1
101 -1
102 -1
103 -1
104 -1
105 -1
106 -1
107 -1

